p cnf 150 210
-58 -76 138 0
-36 6 -30 0
-68 -11 -5 0
-68 -121 -64 0
-146 68 -37 0
-5 -111 138 0
-18 -45 93 0
149 104 110 0
21 130 98 0
-50 46 79 0
29 86 -92 0
78 -70 31 0
-103 26 61 0
44 -32 137 0
44 142 -146 0
-135 1 -76 0
-97 -21 70 0
107 -20 -113 0
60 -132 -62 0
77 -150 -116 0
49 -88 5 0
143 -117 93 0
-120 7 -142 0
-56 -46 -9 0
-12 -34 121 0
-77 113 4 0
91 114 102 0
71 81 59 0
28 -45 -38 0
-88 15 -35 0
-15 124 -72 0
71 -91 34 0
80 -130 -93 0
-53 -104 75 0
130 -137 -66 0
7 15 66 0
-79 -119 22 0
-25 59 67 0
53 -127 91 0
103 -76 47 0
-90 47 -71 0
7 -130 -101 0
-98 -108 -77 0
-41 116 84 0
-127 -94 -37 0
4 148 144 0
98 73 -149 0
-127 60 -82 0
-71 86 -125 0
-80 60 -67 0
-33 42 -32 0
-120 131 85 0
95 58 141 0
-14 -96 -126 0
-129 115 148 0
-105 102 45 0
-128 -129 -47 0
142 72 -34 0
97 -47 98 0
-148 150 -82 0
28 -66 125 0
-81 -114 5 0
9 128 97 0
121 -119 88 0
13 10 -146 0
135 -86 124 0
-68 -84 94 0
-121 81 56 0
75 94 -18 0
-113 52 87 0
-93 -103 80 0
-56 -102 -81 0
-114 -58 60 0
-123 -141 -75 0
-93 -69 -32 0
69 144 -91 0
89 139 -127 0
-75 139 123 0
65 34 95 0
-31 -126 -91 0
-34 -37 -140 0
45 -94 81 0
135 42 -102 0
31 148 -60 0
-149 58 -39 0
131 -3 -113 0
56 -88 -129 0
-14 -55 60 0
46 -18 113 0
-115 133 -27 0
-28 84 76 0
21 -40 -72 0
135 -64 -22 0
-88 -50 -73 0
-24 -79 132 0
-84 139 -130 0
-82 92 -46 0
-63 -147 69 0
139 49 -50 0
145 30 60 0
147 3 -29 0
119 106 98 0
72 56 -24 0
-35 -129 75 0
122 43 -110 0
21 20 117 0
149 -20 117 0
97 89 -128 0
77 122 -83 0
9 -18 -58 0
-58 99 44 0
54 84 9 0
72 -59 95 0
-66 -121 -34 0
33 20 50 0
41 62 -101 0
-23 -91 120 0
-62 -60 131 0
-74 25 -124 0
32 -39 -89 0
-57 126 85 0
120 148 -109 0
12 -89 109 0
-8 -20 130 0
-43 -17 18 0
-122 -56 64 0
78 61 -35 0
66 95 -20 0
-67 87 30 0
120 -141 3 0
64 -142 -77 0
-71 147 -84 0
111 142 36 0
-128 -148 -122 0
81 -99 -16 0
31 36 5 0
-17 -104 -82 0
-90 99 -98 0
101 -61 7 0
-64 -24 91 0
-59 140 -45 0
136 -73 149 0
-131 -79 20 0
132 138 -47 0
-120 -76 117 0
-73 -91 -3 0
-106 75 -40 0
-34 -47 -22 0
-135 149 -126 0
-48 36 88 0
x 6 -9 -10 -12 13 -14 16 -17 18 19 23 -25 26 31 -37 41 -42 -45 46 48 49 50 -51 -55 -56 -57 60 -62 63 -64 65 68 -70 75 79 84 -85 -87 -92 93 -97 -99 -101 -102 -106 112 -113 -115 116 -117 119 121 124 125 126 -129 -130 131 -132 133 134 136 -137 138 -140 142 143 -144 -148 -149 0
x 1 4 -6 -11 -13 15 -16 18 20 -22 -23 24 25 -31 33 -36 37 -39 41 43 -44 -45 46 48 55 58 59 60 63 64 67 69 -71 76 77 87 -88 91 95 -97 -99 104 109 -110 111 -114 116 117 118 -120 121 -122 -123 124 -126 -127 -129 -130 132 -133 -135 -137 -141 -147 -148 -150 0
x -4 5 6 8 10 -11 16 -18 -20 23 -25 -27 28 -29 30 31 -35 41 42 43 44 45 -46 -47 50 -52 53 54 -57 -58 -59 -62 -63 68 -70 -72 78 80 82 -85 86 -87 -89 91 -92 -93 94 95 -97 101 110 112 -114 115 117 -118 120 122 123 124 -125 126 -127 128 -129 -131 134 137 -144 -145 -146 -148 -149 150 0
x 2 -3 -4 -5 7 8 10 14 -15 -16 18 19 21 -24 25 26 27 -29 31 33 34 -35 39 40 41 -44 -46 -47 50 54 55 -56 -58 -59 61 64 -66 -67 -71 -73 -74 80 82 84 85 -86 -87 -91 -92 -93 94 -95 -97 98 -103 104 107 -108 112 114 115 -116 119 122 124 -125 127 -129 -131 135 -136 -137 -138 -140 -146 -147 -148 -149 -150 0
x 2 4 6 7 8 -11 12 -13 16 18 -19 -20 -27 -28 29 30 -31 -33 34 -36 40 -41 -49 51 -53 -57 59 61 62 65 66 67 -68 -71 72 -75 -83 -86 89 90 -91 -97 98 -102 103 -106 107 110 113 -114 115 116 -117 -119 120 -121 122 -124 127 128 -130 132 -134 135 -136 138 -143 -144 145 146 -147 0
x 2 4 -5 6 7 8 -9 11 -12 13 14 15 16 17 -24 25 -28 30 -32 -34 -37 -41 -42 45 -47 51 -52 -53 56 -57 59 -60 -61 -62 63 -65 -66 68 -69 -71 -74 -76 -78 -79 80 81 -84 -86 -87 -88 -89 -90 92 93 -95 -96 97 -99 100 109 -115 118 -119 121 -122 -124 -125 -126 -129 -130 -132 -133 -134 -135 137 -139 140 -141 142 149 -150 0
x 6 -14 -17 -21 23 -26 27 -29 30 34 37 38 -39 43 -46 -49 51 52 -54 -55 -56 57 58 59 -60 -61 62 63 66 67 69 72 -73 75 -79 80 81 -83 84 85 86 -87 -95 -96 -98 -101 -103 104 -105 -106 108 113 114 115 -117 -123 -127 130 131 -132 -138 -140 -142 -143 144 -145 -148 0
x 2 -3 5 7 8 -11 14 -15 17 18 22 23 27 -30 31 -34 -37 39 40 -43 -46 48 -51 -53 -54 55 -56 57 -60 -62 63 -64 -66 -69 -70 -76 -77 -78 80 81 -82 -85 -86 -88 -90 91 -95 -96 -97 -98 -99 100 101 103 -104 106 -108 -109 -110 111 112 114 115 116 -123 124 -132 133 -135 138 -140 -142 -144 -145 -146 -148 150 0
x 5 9 -11 13 16 -18 -22 -24 -26 27 29 32 34 36 -39 41 -45 47 49 -50 51 53 55 56 -58 -60 63 -65 -67 70 71 -73 78 -79 81 82 -85 88 -89 -91 -92 -94 -97 100 -104 107 -108 109 111 112 115 -116 -117 -118 -119 -121 122 -123 -125 129 133 -134 137 138 -139 -144 148 149 0
x 1 -5 7 8 10 12 -13 -15 17 -18 19 23 25 -27 -28 31 33 37 -38 -40 -42 -44 51 -52 53 56 -58 -63 65 66 67 -68 69 -72 -74 -76 79 -80 -81 -83 -85 -88 -89 91 -92 -94 99 100 101 103 -108 -110 -112 -114 115 116 -119 120 122 -124 125 126 130 -134 -136 -137 -139 -141 -144 150 0
x 1 3 6 7 -11 12 13 -14 16 17 18 20 -21 -22 23 25 -27 -28 -32 -34 -35 37 -39 -40 -41 45 -46 47 -48 52 -53 -54 55 58 -60 -61 65 -69 -70 -72 74 75 77 -81 -83 -90 -91 92 -96 97 98 -101 -102 105 109 110 -114 -115 116 118 121 -122 124 126 -127 -128 132 133 134 -135 -136 -138 139 140 143 -144 145 -146 -147 -148 -149 -150 0
x -1 -6 7 9 -10 12 23 25 26 -29 -30 31 32 -36 -39 45 -47 48 -50 51 -52 -53 -54 -56 -57 -60 63 64 -65 67 68 70 -71 73 -76 -77 79 -81 82 -83 84 -87 88 90 91 93 -96 -97 102 103 104 105 -108 109 -111 112 -113 -115 -116 -118 -120 122 -125 -126 127 130 132 -136 137 139 -143 -145 146 147 0
x 1 3 5 6 11 16 -17 -18 -21 -22 -23 -24 -31 -32 -34 -35 -39 -40 42 44 45 49 -50 52 54 55 56 57 -59 61 63 -64 -65 -67 -73 -74 79 -81 82 -83 84 -85 90 91 -93 95 -97 -98 -99 -100 -101 103 -104 -105 106 -108 110 -111 112 -114 -115 -116 -118 119 121 122 123 127 -129 -133 -135 138 -140 -142 -146 147 150 0
x 2 -4 6 7 -9 13 16 17 -19 -20 -21 -23 25 28 -30 31 -33 -34 -35 -38 -39 40 -45 47 49 51 -53 54 -56 57 -58 59 -61 -62 -63 65 -66 68 -70 74 75 76 78 -79 82 -83 84 -86 87 92 93 96 -97 -98 99 -100 -101 -102 104 -106 -107 -110 -111 112 -117 118 120 -121 122 -125 -126 127 -128 -130 -131 -132 -133 135 -142 143 -144 -145 148 -149 150 0
x 2 5 -6 7 8 9 11 12 -13 -15 -20 -21 -22 -23 24 -26 29 -30 -34 36 -40 -41 43 47 50 -51 53 54 55 -58 -59 -61 -63 -64 69 -71 73 -74 -75 77 -78 79 80 -81 -84 -85 -87 -89 90 94 -95 96 98 -101 -102 103 -107 109 -110 113 -115 -116 118 -119 120 -121 124 -125 -126 127 129 132 135 136 -137 138 140 144 -145 147 0
x -1 2 3 8 11 13 14 18 -23 25 -28 -30 31 -33 -36 37 40 -41 46 48 49 50 57 60 61 -63 65 66 67 -69 74 75 -79 -84 -88 -89 91 -92 -93 -94 -97 98 -99 -100 101 103 104 106 -108 -109 -113 116 120 -122 124 125 -127 -129 -131 132 134 -138 -139 141 -148 0
x 1 -7 -9 10 -11 13 -17 23 25 26 27 -29 34 35 -36 -38 43 -47 -48 -50 52 -56 -57 61 -63 -64 -66 -67 68 -70 -71 72 -73 -77 79 -81 -82 -83 -84 -87 88 89 -90 -91 93 -96 -100 -102 -103 104 -105 -112 -114 -115 -116 -118 -121 -122 123 -124 125 129 131 -132 135 -136 -139 140 144 145 146 147 148 0
x 1 2 5 8 10 14 -17 -18 19 23 24 25 -28 -29 34 -36 37 41 -42 43 -44 45 -46 49 52 -53 -54 55 58 61 64 -65 66 67 69 75 -76 77 79 -80 81 84 86 -89 -96 -98 99 -101 -102 -103 111 -112 -115 116 120 121 125 126 -127 -128 129 134 -136 -142 143 -145 146 0
x 2 4 -5 6 -7 -10 11 -12 13 14 16 -18 23 -24 26 29 30 32 37 38 -41 -47 -48 51 52 -54 -55 63 -64 72 74 79 80 81 -82 84 85 86 88 -90 -91 93 94 -95 97 99 100 -101 -102 105 106 112 -116 -121 -122 -125 126 127 129 132 -135 136 138 139 -140 -141 -142 -145 146 147 149 0
x 2 -6 8 -9 -11 -14 -15 -16 -17 -18 -19 20 -21 -22 -25 32 33 35 37 39 40 -41 42 44 -47 48 -50 51 -54 55 57 59 -60 -62 -64 -65 66 67 68 69 72 -74 -77 78 -79 81 83 -84 85 -87 -88 -89 -90 -93 -94 -99 -100 -101 104 -105 109 110 -111 113 -115 -119 120 121 -123 -124 125 -126 128 -129 -132 -133 135 136 -139 -140 141 -144 -146 0
x 1 -3 -8 -11 -13 -16 17 -18 19 22 -23 -25 -26 -27 -29 -34 36 37 -39 -41 42 44 -46 51 52 -53 57 58 59 -60 61 63 65 66 -68 69 73 -75 -77 78 -79 84 -85 86 -90 92 -96 100 -106 107 -109 113 114 -119 -122 129 -130 -131 132 -133 -135 -136 -137 -138 -139 141 -143 -146 -148 -150 0
x 2 -5 -6 -8 -12 16 -19 21 22 23 24 29 31 -32 -35 37 -39 -43 45 -46 -55 -59 -60 -61 62 63 64 -67 68 -69 -71 -75 76 77 79 -88 -90 -91 93 -94 95 -96 98 -104 -107 108 -111 113 114 116 117 -118 119 -121 -122 -123 127 -128 -129 -130 131 -134 137 -139 143 -147 149 150 0
x -2 -3 -4 5 6 7 -10 11 14 18 -19 20 21 24 26 31 -34 -35 -37 38 39 -40 41 46 47 48 -49 -51 52 53 -56 -59 -61 62 63 68 -69 -70 71 72 -77 78 80 85 -86 87 -91 93 -94 99 -100 -101 -106 -111 114 116 117 118 -121 122 125 127 129 -130 135 -138 139 -142 143 144 -145 146 -147 -148 -149 150 0
x -1 -2 -4 5 -7 8 -11 -13 15 -16 -19 21 -26 28 31 -32 39 -40 -41 -45 -46 49 -51 -52 54 55 -56 -60 -61 -62 63 64 65 66 -73 74 -75 78 -80 84 -85 86 88 -90 -97 -99 -100 -102 107 -108 -111 -116 117 118 -120 124 -126 128 -129 -130 131 -134 -138 139 141 -142 144 145 146 148 0
x -3 6 -7 10 12 13 -14 15 16 -18 19 24 -26 27 28 29 -30 31 32 -34 -35 -36 37 39 -45 47 49 50 -51 -53 54 57 -60 -62 69 71 -73 74 -76 -78 -79 80 -82 84 -87 -88 89 91 92 95 97 -98 99 -101 -102 103 -104 106 -107 -110 112 -113 114 115 118 -119 120 121 122 -125 126 127 -129 -130 134 -137 142 -144 145 -146 149 -150 0
x 1 2 -3 -6 11 12 -14 -15 -16 -17 18 -19 -20 22 25 -27 -31 33 -36 40 -41 -46 -47 48 -49 -50 52 54 -56 -58 -60 62 64 66 67 -73 74 75 -76 78 81 82 -84 -86 -89 94 -96 97 99 -100 -101 102 -103 -106 107 109 -110 -114 -115 -117 120 121 -122 -125 126 129 133 -137 139 -140 144 148 -150 0
x -2 -3 4 6 7 8 9 12 -15 -19 20 -21 23 24 25 26 -27 28 30 31 -35 -40 41 44 45 -46 -47 -48 49 -50 54 57 -58 59 -61 -65 70 -71 -72 73 -75 78 82 83 -84 -85 -86 87 93 95 -96 98 -101 -103 105 107 108 111 -112 -113 114 116 -118 122 123 -125 126 -129 -131 132 -134 135 -139 -141 142 -144 -145 -149 0
x -5 6 7 -8 -11 14 -15 -17 18 -19 20 -21 23 -25 -27 29 30 -36 -38 -39 40 -43 -45 46 47 -50 -55 -57 62 -63 -64 67 68 -70 -72 73 -75 -76 78 -79 -80 81 83 -84 88 90 91 -92 97 -98 100 -103 104 106 108 -113 114 115 116 -119 -121 122 123 -125 126 127 128 -129 -130 -132 134 -136 137 -138 139 140 142 -143 146 149 -150 0
x -6 -8 -9 10 11 -14 16 17 21 -22 -23 -24 -29 -30 32 34 -35 -36 -39 -41 43 -44 46 -47 49 -51 56 57 -60 -61 62 64 65 -66 -69 71 -72 -73 76 77 78 81 82 83 85 -86 88 -89 -91 -94 97 -99 103 -104 106 -107 -108 -109 -111 -113 -119 -120 123 124 126 128 -130 -131 133 -134 -135 138 -139 140 -141 -143 145 149 -150 0
x -2 3 5 -6 -7 8 10 11 12 -18 19 -22 23 -25 29 31 36 -39 40 -41 -44 -47 -48 50 51 -52 54 -55 -57 59 -60 61 63 -64 -67 -68 71 -72 -73 75 -78 79 -80 -86 87 88 -89 -93 94 95 -97 106 -110 112 113 -115 -118 -119 -120 121 124 -125 -126 127 -129 -132 134 135 -137 138 -142 -144 145 148 0
x 1 -2 -3 10 -12 -16 17 -19 21 -22 -24 25 27 -28 30 31 35 40 43 45 -48 49 -50 -51 57 -58 -60 -61 62 -63 64 66 67 -70 74 -75 76 78 -82 85 -94 -96 -101 102 108 112 115 116 117 -120 121 -122 124 126 128 129 131 -133 -135 137 139 -142 144 146 -147 -148 -149 0
x -3 -7 -8 9 11 -12 -15 -20 -22 -23 24 25 26 27 29 30 -34 35 38 -42 43 -44 -45 -52 -54 55 -56 -65 68 -70 -72 -73 -74 -79 -81 -83 85 86 -87 -90 91 92 -93 -94 -95 96 100 -101 102 -103 104 -105 107 113 -114 115 118 -121 -122 123 -124 128 -130 131 -132 -136 -140 141 143 -144 145 0
x -5 -6 -8 -10 -11 13 17 -18 19 21 -23 24 27 -28 -30 -31 -32 -33 34 35 -36 38 -39 40 43 44 -45 46 48 -50 -52 -53 -56 -57 -58 -60 -63 -67 68 69 70 -71 -74 76 77 -78 -79 -80 -82 -85 -88 -90 -92 93 94 -95 98 -100 -101 103 -104 105 -108 109 110 -112 -117 118 -120 127 130 -131 -135 136 -137 139 -141 147 -148 -149 150 0
x 3 4 -5 -7 9 -12 -15 -16 -17 18 19 20 24 25 -26 -28 31 -33 34 -35 -37 -38 41 -42 43 49 -51 -52 -54 55 -57 58 60 -61 62 63 64 -65 -66 -67 -68 -69 71 -72 73 74 -79 -81 -83 -84 -87 -90 -91 93 -94 -95 -98 -99 -104 -106 -111 117 118 119 -120 -121 -124 -126 -129 -130 132 -133 -134 135 -136 138 -140 -141 143 -144 145 146 -147 -148 -150 0
x 3 -9 -10 -11 15 16 17 22 -23 26 -27 -28 -31 -36 37 -44 48 49 -53 -54 58 -59 60 61 -63 64 65 66 -67 71 72 -73 -74 75 -77 83 -85 87 -89 90 92 93 -94 97 -101 102 103 104 -108 114 118 120 122 124 125 -126 -132 136 138 -140 141 -143 144 148 149 0
x 2 -3 6 8 -9 11 12 13 14 16 -17 18 20 21 25 -26 27 -28 -32 -33 35 37 38 -40 -41 -43 -44 -46 49 52 55 -56 58 -60 61 62 63 -65 -69 -70 71 -72 74 -79 83 85 -86 -87 -89 -90 91 92 -95 -96 98 100 -101 -105 -106 -107 -108 -109 111 115 -117 118 -122 -123 124 127 -128 130 132 135 137 140 -145 148 149 150 0
x -2 -3 6 -7 -9 10 11 -12 -13 -14 15 16 18 -20 -22 23 -25 -30 -32 -37 41 -42 -43 44 46 47 48 -51 56 57 61 -62 -64 -66 -70 71 72 78 -79 80 85 -86 -88 90 -91 -92 94 96 98 100 -101 -105 -110 -113 115 116 -118 119 120 -122 -123 -124 -125 -127 -129 -130 -133 -135 140 141 148 149 -150 0
x -1 -2 -5 6 -7 8 13 -14 17 18 -19 23 26 27 -31 -32 -33 35 -36 41 -43 -44 -47 -48 -50 -51 52 53 -54 56 59 -60 61 -64 -66 69 70 71 -72 -73 -74 76 79 82 87 -88 89 -90 -91 92 93 95 97 -98 100 103 104 108 111 113 -120 121 -122 123 126 127 -128 -129 130 131 132 133 -135 136 138 139 140 -142 -143 -144 145 147 149 0
x -3 8 -15 16 -17 -19 20 23 24 -28 29 -30 35 36 -38 41 43 -44 -45 -46 51 53 55 -56 57 60 63 -64 -65 66 67 70 -72 -73 74 75 -77 -78 -79 -80 81 82 -84 87 -88 -89 -90 92 93 99 100 -104 -108 -109 111 -115 -117 -119 120 123 126 127 -128 133 -134 137 -141 -145 -146 0
x -2 -4 -5 8 12 15 16 17 -19 20 -22 -24 25 29 30 31 -34 37 -38 -39 43 49 51 52 54 58 -59 -62 63 -65 66 -68 -71 -72 73 -78 -80 81 -82 -83 -84 -86 88 -91 92 94 -95 98 99 -100 104 108 -109 113 -114 -115 116 -117 118 -122 124 127 132 -133 134 137 -141 -143 147 148 149 0
x -1 -4 5 -7 -8 -12 -14 -15 16 -17 -18 21 27 -35 36 -37 39 40 41 -42 -48 49 -50 53 54 -55 71 -72 74 75 78 -80 82 -85 -90 93 -95 96 -97 -98 99 -101 -102 103 -107 110 -111 -113 -114 115 -117 -118 -119 122 124 -125 127 128 -130 -131 132 -133 -134 -135 -136 139 -140 -144 145 -146 -149 -150 0
x 1 5 -6 -8 9 12 -16 17 -20 -22 24 26 -27 -28 32 -33 -34 39 42 -44 -46 -48 -50 51 -56 62 64 66 -68 -69 70 71 -75 -78 79 -80 81 -86 -87 -88 90 91 -94 -95 -96 -98 99 -100 -101 103 106 107 112 -113 -114 -116 119 121 123 126 127 -129 -131 -134 136 137 -141 -148 149 0
x -1 2 -4 -5 -6 -7 10 -15 -18 20 -22 -23 -24 -25 26 27 28 31 36 39 40 48 49 -55 56 -62 -64 66 -67 -68 -70 73 75 -76 -77 78 -81 83 -87 88 91 -92 -93 94 -102 -103 104 106 -115 -120 -121 122 125 -129 130 131 132 -134 -135 -138 -140 141 142 -144 -145 -146 -148 0
x 1 2 3 -5 7 8 11 12 17 18 19 -22 -25 26 30 36 37 39 41 42 43 44 45 -46 47 -48 49 50 -52 -55 56 58 -59 60 -62 -63 66 -69 -71 -72 74 -78 83 86 87 90 -93 -94 -96 97 99 103 -104 106 107 108 109 -111 112 -117 118 122 -123 -124 -127 -129 -130 -131 -134 138 139 -140 141 -143 144 -146 150 0
x -1 -2 3 4 5 6 -7 8 9 -10 13 16 19 -21 -22 -24 -27 28 29 -33 -34 -35 37 41 43 46 -47 49 51 -52 53 54 -55 -56 58 -60 -61 62 -63 64 66 -67 69 70 75 77 -80 -81 -83 -86 -87 -88 90 91 93 94 97 99 100 -103 -106 107 -108 110 111 113 114 -115 -116 117 -118 -119 -120 -124 125 -128 -129 -132 -134 140 -142 -144 150 0
x 1 -3 -6 7 9 10 -12 -13 -14 -17 18 -22 -25 29 30 31 -33 -36 -37 -38 -39 -41 -44 -46 -47 49 54 -55 -56 57 59 -64 65 70 -71 -72 74 -77 79 -81 82 88 -89 -90 -92 93 -94 95 -97 -99 -100 -101 105 -112 114 -116 123 125 126 -127 -128 -130 133 -135 138 -141 142 -143 144 -145 146 -148 -149 0
x -1 -3 -7 10 14 15 18 21 -22 25 27 28 -29 -32 -33 -39 -41 -43 45 46 47 48 -49 51 53 -54 55 57 -60 -61 -63 -64 -68 -74 75 79 80 81 -82 85 88 90 91 92 93 -95 96 98 -102 -103 104 105 -106 -108 -109 -110 114 -119 -121 -122 -124 125 126 131 136 -140 141 -142 -143 144 145 146 -147 -148 149 0
x 1 2 -6 -7 13 -15 16 -17 18 -20 -21 22 24 25 -29 -32 36 42 -43 -44 45 -48 -51 53 55 -59 60 63 65 66 69 -72 -74 -75 76 -78 79 81 82 -85 91 92 93 -94 96 98 99 -101 103 104 -105 107 111 113 114 115 -116 -118 -120 -124 -128 -130 -134 -135 -138 -142 144 145 146 -147 -150 0
x -1 2 -5 6 -8 11 12 -14 -15 16 -17 19 -21 -24 -30 33 37 38 -41 44 -48 49 50 -51 52 53 54 -55 56 -57 -59 61 -62 63 -64 -65 -67 -70 -74 76 78 79 81 -83 -85 -86 87 88 -90 -91 96 97 105 106 110 111 -112 116 -117 118 -119 120 -123 124 -125 -126 128 -131 134 138 -142 -143 -145 146 147 148 150 0
x -1 3 5 7 9 12 13 14 -17 -19 -23 -24 28 -31 -32 33 39 40 -41 -43 44 47 49 -50 -51 53 -54 -58 64 -68 -69 70 -71 72 74 77 78 -82 -84 86 89 -90 91 92 97 98 102 -104 -105 106 -109 111 112 -113 -118 -119 120 121 -122 -123 128 129 131 132 133 134 135 -138 141 142 -144 -145 149 0
x -1 2 3 6 -7 8 10 -11 -13 -14 15 -18 19 21 23 -24 25 26 27 30 -33 38 -44 46 -47 -48 50 -51 55 -58 -59 60 -61 63 66 69 70 -72 74 -75 -76 77 81 84 -88 90 93 -94 97 -98 -99 100 -107 -108 -109 -110 -113 -116 -119 -121 122 -125 128 -131 -132 133 -134 136 138 139 -140 143 145 148 149 0
x 2 -5 -6 7 -9 10 11 -12 16 -18 -19 20 -21 22 23 24 -25 -27 -29 30 -35 -36 37 -38 -40 42 -44 -45 -46 51 -53 55 58 -60 -61 -68 -69 -70 -72 73 75 -77 78 80 81 -82 85 -89 90 91 -94 -95 97 -100 -101 -102 -103 107 109 111 114 115 -116 -117 -119 120 122 124 -125 127 128 130 -132 135 -138 140 -145 -147 148 149 150 0
x 1 -5 9 10 11 -15 -16 -17 -20 -23 -25 27 30 32 33 -35 36 37 39 -43 44 -46 -47 49 52 -54 -59 -60 61 -63 64 65 -66 68 -70 73 -76 77 80 84 85 -86 -88 -89 -93 -100 -101 103 -105 -107 -108 109 110 -112 114 115 116 117 -118 -119 -120 -123 126 127 -130 -132 133 -139 140 142 147 -149 -150 0
x 1 2 -3 -5 7 -8 9 -10 -12 -13 -14 -15 16 -19 -22 -23 26 27 28 -29 -31 32 33 34 36 -37 38 44 48 -49 51 58 -64 -65 67 68 69 -70 71 -74 75 -80 -83 85 -87 89 -90 91 -98 -102 -108 109 -111 -113 -115 117 118 119 121 124 126 127 128 -129 131 -134 138 -140 141 -142 144 -145 -148 149 -150 0
x -3 4 7 -8 -9 10 22 -23 -25 28 -29 -32 -35 -36 37 -40 43 -44 -53 56 -58 59 60 61 -63 -67 -68 -69 -72 75 80 -81 83 84 -86 -88 89 -91 93 -102 -103 -104 -109 113 114 -115 -118 -120 -122 -124 125 128 -131 -132 134 -136 -143 -144 145 146 148 -149 150 0
x -3 -8 9 10 12 -13 -14 -16 -17 -21 22 -23 24 27 -29 30 32 -35 36 37 -38 39 41 43 -44 -45 -46 47 48 51 -53 -55 -56 -57 58 59 -60 -61 62 -63 64 65 67 -68 69 -70 72 -73 74 76 77 82 -84 85 -86 -87 -88 89 -91 -92 94 95 97 -99 -101 104 -106 107 -108 113 114 -117 -119 -123 -125 -126 127 128 -129 131 -134 136 141 145 -148 0
x 1 2 5 -6 -9 11 13 14 -15 -16 -17 19 20 -21 23 25 -27 29 -30 -32 36 37 40 -43 44 -48 50 54 -56 57 60 -61 62 63 -64 67 71 -73 74 78 79 81 83 85 -86 87 88 89 94 -96 97 -99 100 101 -102 105 106 107 -109 112 114 -115 -118 124 -126 131 -134 -136 138 -139 -142 147 148 149 150 0
x -1 2 -3 -4 5 6 8 -10 11 12 -13 -16 19 25 -26 27 -29 -31 33 34 -35 -39 -40 41 44 46 -47 -48 50 -51 -52 54 57 58 60 61 66 -68 70 -73 74 -76 77 -78 -80 -82 -84 88 89 90 -94 95 98 99 100 104 -106 109 114 118 -121 126 -127 129 132 -134 143 145 148 150 0
x -2 4 -6 -8 13 -14 15 17 -18 21 22 23 24 -28 29 30 -34 -36 37 40 45 -50 -53 -54 56 -57 -58 60 62 64 -66 67 70 -71 72 -73 -74 -75 77 -78 79 -83 86 -87 -90 -92 -94 -96 -98 -99 -102 -107 -109 114 -117 118 -120 -122 -123 128 129 131 132 -133 -134 137 138 -139 -140 -142 144 147 149 -150 0
x -1 -2 -3 6 12 -14 15 -16 17 -20 -21 23 24 -27 28 -29 -32 -35 38 -43 -44 45 47 -50 -52 53 54 55 -56 60 -61 -62 64 66 68 -69 -72 -74 -75 -77 -80 -83 84 -88 -89 -91 93 96 98 -101 102 -104 -106 107 108 113 -114 116 117 118 -120 125 128 -130 -131 132 135 136 -137 -139 -141 143 145 -147 -150 0
